NAME: bip_60_9
TYPE: TSP
COMMENT: bip_60_9
DIMENSION: 60
EDGE_WEIGHT_TYPE: EUC_2D
NODE_COORD_SECTION
1 82 56
2 55 7
3 4 94
4 98 23
5 1 79
6 18 71
7 89 95
8 78 91
9 98 69
10 3 31
11 46 84
12 5 90
13 28 35
14 96 37
15 3 46
16 73 27
17 42 50
18 85 48
19 89 41
20 81 4
21 9 26
22 39 52
23 80 61
24 99 42
25 41 64
26 53 88
27 29 64
28 5 2
29 57 86
30 92 23
31 463 450
32 404 428
33 417 487
34 408 494
35 477 498
36 406 467
37 426 450
38 484 407
39 493 475
40 490 400
41 419 469
42 476 432
43 401 492
44 484 432
45 423 451
46 482 488
47 463 407
48 465 495
49 401 459
50 429 488
51 434 409
52 417 402
53 466 463
54 474 464
55 464 495
56 499 485
57 419 487
58 404 425
59 425 414
60 456 486
